\Problem name: compact

Minimize
OBJROW: C
Subject To
ord(0,1):  x(0,2) - x(0,4) >= 8
ord(0,2):  x(0,0) - x(0,2) >= 10
ord(0,3):  - x(0,0) + x(0,3) >= 4
ord(0,4):  x(0,1) - x(0,3) >= 4
ord(1,1):  x(1,0) - x(1,1) >= 9
ord(1,2):  - x(1,0) + x(1,3) >= 9
ord(1,3):  - x(1,3) + x(1,4) >= 4
ord(1,4):  x(1,2) - x(1,4) >= 5
ord(2,1):  - x(2,0) + x(2,3) >= 3
ord(2,2):  x(2,1) - x(2,3) >= 3
ord(2,3):  - x(2,1) + x(2,2) >= 9
ord(2,4):  - x(2,2) + x(2,4) >= 5
ord(3,1):  x(3,1) - x(3,2) >= 3
ord(3,2):  x(3,0) - x(3,1) >= 3
ord(3,3):  - x(3,0) + x(3,3) >= 4
ord(3,4):  - x(3,3) + x(3,4) >= 10
triangle2(0,1,0):  y(0,1,0) + y(1,0,0) = 1
triangle2(0,1,1):  y(0,1,1) + y(1,0,1) = 1
triangle2(0,1,2):  y(0,1,2) + y(1,0,2) = 1
triangle2(0,1,3):  y(0,1,3) + y(1,0,3) = 1
triangle2(0,1,4):  y(0,1,4) + y(1,0,4) = 1
triangle2(0,2,0):  y(0,2,0) + y(2,0,0) = 1
triangle2(0,2,1):  y(0,2,1) + y(2,0,1) = 1
triangle2(0,2,2):  y(0,2,2) + y(2,0,2) = 1
triangle2(0,2,3):  y(0,2,3) + y(2,0,3) = 1
triangle2(0,2,4):  y(0,2,4) + y(2,0,4) = 1
triangle2(0,3,0):  y(0,3,0) + y(3,0,0) = 1
triangle2(0,3,1):  y(0,3,1) + y(3,0,1) = 1
triangle2(0,3,2):  y(0,3,2) + y(3,0,2) = 1
triangle2(0,3,3):  y(0,3,3) + y(3,0,3) = 1
triangle2(0,3,4):  y(0,3,4) + y(3,0,4) = 1
triangle2(1,2,0):  y(1,2,0) + y(2,1,0) = 1
triangle2(1,2,1):  y(1,2,1) + y(2,1,1) = 1
triangle2(1,2,2):  y(1,2,2) + y(2,1,2) = 1
triangle2(1,2,3):  y(1,2,3) + y(2,1,3) = 1
triangle2(1,2,4):  y(1,2,4) + y(2,1,4) = 1
triangle2(1,3,0):  y(1,3,0) + y(3,1,0) = 1
triangle2(1,3,1):  y(1,3,1) + y(3,1,1) = 1
triangle2(1,3,2):  y(1,3,2) + y(3,1,2) = 1
triangle2(1,3,3):  y(1,3,3) + y(3,1,3) = 1
triangle2(1,3,4):  y(1,3,4) + y(3,1,4) = 1
triangle2(2,3,0):  y(2,3,0) + y(3,2,0) = 1
triangle2(2,3,1):  y(2,3,1) + y(3,2,1) = 1
triangle2(2,3,2):  y(2,3,2) + y(3,2,2) = 1
triangle2(2,3,3):  y(2,3,3) + y(3,2,3) = 1
triangle2(2,3,4):  y(2,3,4) + y(3,2,4) = 1
MCLinV(0,1,0):  x(0,0) - v(0,1,0) - x(1,0) = 9
MCLinV(1,0,0):  - x(0,0) - v(1,0,0) + x(1,0) = 4
MCLin1(0,1,0):  u(0,1,0) >= -0
MCLin2(0,1,0):  -79 y(1,0,0) - u(0,1,0) <= -0
MCLin3(0,1,0):  81 y(1,0,0) + v(0,1,0) - u(0,1,0) <= 81
MCLin4(0,1,0):  81 y(1,0,0) - u(0,1,0) >= -0
MCLin5(0,1,0):  -79 y(1,0,0) + v(0,1,0) - u(0,1,0) >= -79
MCLin6(1,0,0):  u(1,0,0) >= -0
MCLin7(1,0,0):  -94 y(0,1,0) - u(1,0,0) <= -0
MCLin8(1,0,0):  66 y(0,1,0) + v(1,0,0) - u(1,0,0) <= 66
MCLin9(1,0,0):  66 y(0,1,0) - u(1,0,0) >= -0
MCLin10(1,0,0):  -94 y(0,1,0) + v(1,0,0) - u(1,0,0) >= -94
MCLinV(0,1,1):  x(0,1) - v(0,1,1) - x(1,1) = 9
MCLinV(1,0,1):  - x(0,1) - v(1,0,1) + x(1,1) = 7
MCLin1(0,1,1):  u(0,1,1) >= -0
MCLin2(0,1,1):  -62 y(1,0,1) - u(0,1,1) <= -0
MCLin3(0,1,1):  98 y(1,0,1) + v(0,1,1) - u(0,1,1) <= 98
MCLin4(0,1,1):  98 y(1,0,1) - u(0,1,1) >= -0
MCLin5(0,1,1):  -62 y(1,0,1) + v(0,1,1) - u(0,1,1) >= -62
MCLin6(1,0,1):  u(1,0,1) >= -0
MCLin7(1,0,1):  -114 y(0,1,1) - u(1,0,1) <= -0
MCLin8(1,0,1):  46 y(0,1,1) + v(1,0,1) - u(1,0,1) <= 46
MCLin9(1,0,1):  46 y(0,1,1) - u(1,0,1) >= -0
MCLin10(1,0,1):  -114 y(0,1,1) + v(1,0,1) - u(1,0,1) >= -114
MCLinV(0,1,2):  x(0,2) - v(0,1,2) - x(1,2) = 8
MCLinV(1,0,2):  - x(0,2) - v(1,0,2) + x(1,2) = 10
MCLin1(0,1,2):  u(0,1,2) >= -0
MCLin2(0,1,2):  -106 y(1,0,2) - u(0,1,2) <= -0
MCLin3(0,1,2):  54 y(1,0,2) + v(0,1,2) - u(0,1,2) <= 54
MCLin4(0,1,2):  54 y(1,0,2) - u(0,1,2) >= -0
MCLin5(0,1,2):  -106 y(1,0,2) + v(0,1,2) - u(0,1,2) >= -106
MCLin6(1,0,2):  u(1,0,2) >= -0
MCLin7(1,0,2):  -72 y(0,1,2) - u(1,0,2) <= -0
MCLin8(1,0,2):  88 y(0,1,2) + v(1,0,2) - u(1,0,2) <= 88
MCLin9(1,0,2):  88 y(0,1,2) - u(1,0,2) >= -0
MCLin10(1,0,2):  -72 y(0,1,2) + v(1,0,2) - u(1,0,2) >= -72
MCLinV(0,1,3):  x(0,3) - v(0,1,3) - x(1,3) = 4
MCLinV(1,0,3):  - x(0,3) - v(1,0,3) + x(1,3) = 4
MCLin1(0,1,3):  u(0,1,3) >= -0
MCLin2(0,1,3):  -79 y(1,0,3) - u(0,1,3) <= -0
MCLin3(0,1,3):  81 y(1,0,3) + v(0,1,3) - u(0,1,3) <= 81
MCLin4(0,1,3):  81 y(1,0,3) - u(0,1,3) >= -0
MCLin5(0,1,3):  -79 y(1,0,3) + v(0,1,3) - u(0,1,3) >= -79
MCLin6(1,0,3):  u(1,0,3) >= -0
MCLin7(1,0,3):  -89 y(0,1,3) - u(1,0,3) <= -0
MCLin8(1,0,3):  71 y(0,1,3) + v(1,0,3) - u(1,0,3) <= 71
MCLin9(1,0,3):  71 y(0,1,3) - u(1,0,3) >= -0
MCLin10(1,0,3):  -89 y(0,1,3) + v(1,0,3) - u(1,0,3) >= -89
MCLinV(0,1,4):  x(0,4) - v(0,1,4) - x(1,4) = 5
MCLinV(1,0,4):  - x(0,4) - v(1,0,4) + x(1,4) = 8
MCLin1(0,1,4):  u(0,1,4) >= -0
MCLin2(0,1,4):  -106 y(1,0,4) - u(0,1,4) <= -0
MCLin3(0,1,4):  54 y(1,0,4) + v(0,1,4) - u(0,1,4) <= 54
MCLin4(0,1,4):  54 y(1,0,4) - u(0,1,4) >= -0
MCLin5(0,1,4):  -106 y(1,0,4) + v(0,1,4) - u(0,1,4) >= -106
MCLin6(1,0,4):  u(1,0,4) >= -0
MCLin7(1,0,4):  -67 y(0,1,4) - u(1,0,4) <= -0
MCLin8(1,0,4):  93 y(0,1,4) + v(1,0,4) - u(1,0,4) <= 93
MCLin9(1,0,4):  93 y(0,1,4) - u(1,0,4) >= -0
MCLin10(1,0,4):  -67 y(0,1,4) + v(1,0,4) - u(1,0,4) >= -67
MCLinV(0,2,0):  x(0,0) - v(0,2,0) - x(2,0) = 3
MCLinV(2,0,0):  - x(0,0) - v(2,0,0) + x(2,0) = 4
MCLin1(0,2,0):  u(0,2,0) >= -0
MCLin2(0,2,0):  -74 y(2,0,0) - u(0,2,0) <= -0
MCLin3(0,2,0):  96 y(2,0,0) + v(0,2,0) - u(0,2,0) <= 96
MCLin4(0,2,0):  96 y(2,0,0) - u(0,2,0) >= -0
MCLin5(0,2,0):  -74 y(2,0,0) + v(0,2,0) - u(0,2,0) >= -74
MCLin6(2,0,0):  u(2,0,0) >= -0
MCLin7(2,0,0):  -103 y(0,2,0) - u(2,0,0) <= -0
MCLin8(2,0,0):  67 y(0,2,0) + v(2,0,0) - u(2,0,0) <= 67
MCLin9(2,0,0):  67 y(0,2,0) - u(2,0,0) >= -0
MCLin10(2,0,0):  -103 y(0,2,0) + v(2,0,0) - u(2,0,0) >= -103
MCLinV(0,2,1):  x(0,1) - v(0,2,1) - x(2,1) = 9
MCLinV(2,0,1):  - x(0,1) - v(2,0,1) + x(2,1) = 7
MCLin1(0,2,1):  u(0,2,1) >= -0
MCLin2(0,2,1):  -78 y(2,0,1) - u(0,2,1) <= -0
MCLin3(0,2,1):  92 y(2,0,1) + v(0,2,1) - u(0,2,1) <= 92
MCLin4(0,2,1):  92 y(2,0,1) - u(0,2,1) >= -0
MCLin5(0,2,1):  -78 y(2,0,1) + v(0,2,1) - u(0,2,1) >= -78
MCLin6(2,0,1):  u(2,0,1) >= -0
MCLin7(2,0,1):  -108 y(0,2,1) - u(2,0,1) <= -0
MCLin8(2,0,1):  62 y(0,2,1) + v(2,0,1) - u(2,0,1) <= 62
MCLin9(2,0,1):  62 y(0,2,1) - u(2,0,1) >= -0
MCLin10(2,0,1):  -108 y(0,2,1) + v(2,0,1) - u(2,0,1) >= -108
MCLinV(0,2,2):  x(0,2) - v(0,2,2) - x(2,2) = 5
MCLinV(2,0,2):  - x(0,2) - v(2,0,2) + x(2,2) = 10
MCLin1(0,2,2):  u(0,2,2) >= -0
MCLin2(0,2,2):  -101 y(2,0,2) - u(0,2,2) <= -0
MCLin3(0,2,2):  69 y(2,0,2) + v(0,2,2) - u(0,2,2) <= 69
MCLin4(0,2,2):  69 y(2,0,2) - u(0,2,2) >= -0
MCLin5(0,2,2):  -101 y(2,0,2) + v(0,2,2) - u(0,2,2) >= -101
MCLin6(2,0,2):  u(2,0,2) >= -0
MCLin7(2,0,2):  -84 y(0,2,2) - u(2,0,2) <= -0
MCLin8(2,0,2):  86 y(0,2,2) + v(2,0,2) - u(2,0,2) <= 86
MCLin9(2,0,2):  86 y(0,2,2) - u(2,0,2) >= -0
MCLin10(2,0,2):  -84 y(0,2,2) + v(2,0,2) - u(2,0,2) >= -84
MCLinV(0,2,3):  x(0,3) - v(0,2,3) - x(2,3) = 3
MCLinV(2,0,3):  - x(0,3) - v(2,0,3) + x(2,3) = 4
MCLin1(0,2,3):  u(0,2,3) >= -0
MCLin2(0,2,3):  -73 y(2,0,3) - u(0,2,3) <= -0
MCLin3(0,2,3):  97 y(2,0,3) + v(0,2,3) - u(0,2,3) <= 97
MCLin4(0,2,3):  97 y(2,0,3) - u(0,2,3) >= -0
MCLin5(0,2,3):  -73 y(2,0,3) + v(0,2,3) - u(0,2,3) >= -73
MCLin6(2,0,3):  u(2,0,3) >= -0
MCLin7(2,0,3):  -104 y(0,2,3) - u(2,0,3) <= -0
MCLin8(2,0,3):  66 y(0,2,3) + v(2,0,3) - u(2,0,3) <= 66
MCLin9(2,0,3):  66 y(0,2,3) - u(2,0,3) >= -0
MCLin10(2,0,3):  -104 y(0,2,3) + v(2,0,3) - u(2,0,3) >= -104
MCLinV(0,2,4):  x(0,4) - v(0,2,4) - x(2,4) = 5
MCLinV(2,0,4):  - x(0,4) - v(2,0,4) + x(2,4) = 8
MCLin1(0,2,4):  u(0,2,4) >= -0
MCLin2(0,2,4):  -114 y(2,0,4) - u(0,2,4) <= -0
MCLin3(0,2,4):  56 y(2,0,4) + v(0,2,4) - u(0,2,4) <= 56
MCLin4(0,2,4):  56 y(2,0,4) - u(0,2,4) >= -0
MCLin5(0,2,4):  -114 y(2,0,4) + v(0,2,4) - u(0,2,4) >= -114
MCLin6(2,0,4):  u(2,0,4) >= -0
MCLin7(2,0,4):  -69 y(0,2,4) - u(2,0,4) <= -0
MCLin8(2,0,4):  101 y(0,2,4) + v(2,0,4) - u(2,0,4) <= 101
MCLin9(2,0,4):  101 y(0,2,4) - u(2,0,4) >= -0
MCLin10(2,0,4):  -69 y(0,2,4) + v(2,0,4) - u(2,0,4) >= -69
MCLinV(0,3,0):  x(0,0) - v(0,3,0) - x(3,0) = 4
MCLinV(3,0,0):  - x(0,0) - v(3,0,0) + x(3,0) = 4
MCLin1(0,3,0):  u(0,3,0) >= -0
MCLin2(0,3,0):  -85 y(3,0,0) - u(0,3,0) <= -0
MCLin3(0,3,0):  89 y(3,0,0) + v(0,3,0) - u(0,3,0) <= 89
MCLin4(0,3,0):  89 y(3,0,0) - u(0,3,0) >= -0
MCLin5(0,3,0):  -85 y(3,0,0) + v(0,3,0) - u(0,3,0) >= -85
MCLin6(3,0,0):  u(3,0,0) >= -0
MCLin7(3,0,0):  -97 y(0,3,0) - u(3,0,0) <= -0
MCLin8(3,0,0):  77 y(0,3,0) + v(3,0,0) - u(3,0,0) <= 77
MCLin9(3,0,0):  77 y(0,3,0) - u(3,0,0) >= -0
MCLin10(3,0,0):  -97 y(0,3,0) + v(3,0,0) - u(3,0,0) >= -97
MCLinV(0,3,1):  x(0,1) - v(0,3,1) - x(3,1) = 3
MCLinV(3,0,1):  - x(0,1) - v(3,0,1) + x(3,1) = 7
MCLin1(0,3,1):  u(0,3,1) >= -0
MCLin2(0,3,1):  -73 y(3,0,1) - u(0,3,1) <= -0
MCLin3(0,3,1):  101 y(3,0,1) + v(0,3,1) - u(0,3,1) <= 101
MCLin4(0,3,1):  101 y(3,0,1) - u(0,3,1) >= -0
MCLin5(0,3,1):  -73 y(3,0,1) + v(0,3,1) - u(0,3,1) >= -73
MCLin6(3,0,1):  u(3,0,1) >= -0
MCLin7(3,0,1):  -111 y(0,3,1) - u(3,0,1) <= -0
MCLin8(3,0,1):  63 y(0,3,1) + v(3,0,1) - u(3,0,1) <= 63
MCLin9(3,0,1):  63 y(0,3,1) - u(3,0,1) >= -0
MCLin10(3,0,1):  -111 y(0,3,1) + v(3,0,1) - u(3,0,1) >= -111
MCLinV(0,3,2):  x(0,2) - v(0,3,2) - x(3,2) = 3
MCLinV(3,0,2):  - x(0,2) - v(3,0,2) + x(3,2) = 10
MCLin1(0,3,2):  u(0,3,2) >= -0
MCLin2(0,3,2):  -88 y(3,0,2) - u(0,3,2) <= -0
MCLin3(0,3,2):  86 y(3,0,2) + v(0,3,2) - u(0,3,2) <= 86
MCLin4(0,3,2):  86 y(3,0,2) - u(0,3,2) >= -0
MCLin5(0,3,2):  -88 y(3,0,2) + v(0,3,2) - u(0,3,2) >= -88
MCLin6(3,0,2):  u(3,0,2) >= -0
MCLin7(3,0,2):  -99 y(0,3,2) - u(3,0,2) <= -0
MCLin8(3,0,2):  75 y(0,3,2) + v(3,0,2) - u(3,0,2) <= 75
MCLin9(3,0,2):  75 y(0,3,2) - u(3,0,2) >= -0
MCLin10(3,0,2):  -99 y(0,3,2) + v(3,0,2) - u(3,0,2) >= -99
MCLinV(0,3,3):  x(0,3) - v(0,3,3) - x(3,3) = 10
MCLinV(3,0,3):  - x(0,3) - v(3,0,3) + x(3,3) = 4
MCLin1(0,3,3):  u(0,3,3) >= -0
MCLin2(0,3,3):  -91 y(3,0,3) - u(0,3,3) <= -0
MCLin3(0,3,3):  83 y(3,0,3) + v(0,3,3) - u(0,3,3) <= 83
MCLin4(0,3,3):  83 y(3,0,3) - u(0,3,3) >= -0
MCLin5(0,3,3):  -91 y(3,0,3) + v(0,3,3) - u(0,3,3) >= -91
MCLin6(3,0,3):  u(3,0,3) >= -0
MCLin7(3,0,3):  -97 y(0,3,3) - u(3,0,3) <= -0
MCLin8(3,0,3):  77 y(0,3,3) + v(3,0,3) - u(3,0,3) <= 77
MCLin9(3,0,3):  77 y(0,3,3) - u(3,0,3) >= -0
MCLin10(3,0,3):  -97 y(0,3,3) + v(3,0,3) - u(3,0,3) >= -97
MCLinV(0,3,4):  x(0,4) - v(0,3,4) - x(3,4) = 1
MCLinV(3,0,4):  - x(0,4) - v(3,0,4) + x(3,4) = 8
MCLin1(0,3,4):  u(0,3,4) >= -0
MCLin2(0,3,4):  -114 y(3,0,4) - u(0,3,4) <= -0
MCLin3(0,3,4):  60 y(3,0,4) + v(0,3,4) - u(0,3,4) <= 60
MCLin4(0,3,4):  60 y(3,0,4) - u(0,3,4) >= -0
MCLin5(0,3,4):  -114 y(3,0,4) + v(0,3,4) - u(0,3,4) >= -114
MCLin6(3,0,4):  u(3,0,4) >= -0
MCLin7(3,0,4):  -69 y(0,3,4) - u(3,0,4) <= -0
MCLin8(3,0,4):  105 y(0,3,4) + v(3,0,4) - u(3,0,4) <= 105
MCLin9(3,0,4):  105 y(0,3,4) - u(3,0,4) >= -0
MCLin10(3,0,4):  -69 y(0,3,4) + v(3,0,4) - u(3,0,4) >= -69
MCLinV(1,2,0):  x(1,0) - v(1,2,0) - x(2,0) = 3
MCLinV(2,1,0):  - x(1,0) - v(2,1,0) + x(2,0) = 9
MCLin1(1,2,0):  u(1,2,0) >= -0
MCLin2(1,2,0):  -83 y(2,1,0) - u(1,2,0) <= -0
MCLin3(1,2,0):  85 y(2,1,0) + v(1,2,0) - u(1,2,0) <= 85
MCLin4(1,2,0):  85 y(2,1,0) - u(1,2,0) >= -0
MCLin5(1,2,0):  -83 y(2,1,0) + v(1,2,0) - u(1,2,0) >= -83
MCLin6(2,1,0):  u(2,1,0) >= -0
MCLin7(2,1,0):  -97 y(1,2,0) - u(2,1,0) <= -0
MCLin8(2,1,0):  71 y(1,2,0) + v(2,1,0) - u(2,1,0) <= 71
MCLin9(2,1,0):  71 y(1,2,0) - u(2,1,0) >= -0
MCLin10(2,1,0):  -97 y(1,2,0) + v(2,1,0) - u(2,1,0) >= -97
MCLinV(1,2,1):  x(1,1) - v(1,2,1) - x(2,1) = 9
MCLinV(2,1,1):  - x(1,1) - v(2,1,1) + x(2,1) = 9
MCLin1(1,2,1):  u(1,2,1) >= -0
MCLin2(1,2,1):  -104 y(2,1,1) - u(1,2,1) <= -0
MCLin3(1,2,1):  64 y(2,1,1) + v(1,2,1) - u(1,2,1) <= 64
MCLin4(1,2,1):  64 y(2,1,1) - u(1,2,1) >= -0
MCLin5(1,2,1):  -104 y(2,1,1) + v(1,2,1) - u(1,2,1) >= -104
MCLin6(2,1,1):  u(2,1,1) >= -0
MCLin7(2,1,1):  -82 y(1,2,1) - u(2,1,1) <= -0
MCLin8(2,1,1):  86 y(1,2,1) + v(2,1,1) - u(2,1,1) <= 86
MCLin9(2,1,1):  86 y(1,2,1) - u(2,1,1) >= -0
MCLin10(2,1,1):  -82 y(1,2,1) + v(2,1,1) - u(2,1,1) >= -82
MCLinV(1,2,2):  x(1,2) - v(1,2,2) - x(2,2) = 5
MCLinV(2,1,2):  - x(1,2) - v(2,1,2) + x(2,2) = 8
MCLin1(1,2,2):  u(1,2,2) >= -0
MCLin2(1,2,2):  -82 y(2,1,2) - u(1,2,2) <= -0
MCLin3(1,2,2):  86 y(2,1,2) + v(1,2,2) - u(1,2,2) <= 86
MCLin4(1,2,2):  86 y(2,1,2) - u(1,2,2) >= -0
MCLin5(1,2,2):  -82 y(2,1,2) + v(1,2,2) - u(1,2,2) >= -82
MCLin6(2,1,2):  u(2,1,2) >= -0
MCLin7(2,1,2):  -99 y(1,2,2) - u(2,1,2) <= -0
MCLin8(2,1,2):  69 y(1,2,2) + v(2,1,2) - u(2,1,2) <= 69
MCLin9(2,1,2):  69 y(1,2,2) - u(2,1,2) >= -0
MCLin10(2,1,2):  -99 y(1,2,2) + v(2,1,2) - u(2,1,2) >= -99
MCLinV(1,2,3):  x(1,3) - v(1,2,3) - x(2,3) = 3
MCLinV(2,1,3):  - x(1,3) - v(2,1,3) + x(2,3) = 4
MCLin1(1,2,3):  u(1,2,3) >= -0
MCLin2(1,2,3):  -77 y(2,1,3) - u(1,2,3) <= -0
MCLin3(1,2,3):  91 y(2,1,3) + v(1,2,3) - u(1,2,3) <= 91
MCLin4(1,2,3):  91 y(2,1,3) - u(1,2,3) >= -0
MCLin5(1,2,3):  -77 y(2,1,3) + v(1,2,3) - u(1,2,3) >= -77
MCLin6(2,1,3):  u(2,1,3) >= -0
MCLin7(2,1,3):  -98 y(1,2,3) - u(2,1,3) <= -0
MCLin8(2,1,3):  70 y(1,2,3) + v(2,1,3) - u(2,1,3) <= 70
MCLin9(2,1,3):  70 y(1,2,3) - u(2,1,3) >= -0
MCLin10(2,1,3):  -98 y(1,2,3) + v(2,1,3) - u(2,1,3) >= -98
MCLinV(1,2,4):  x(1,4) - v(1,2,4) - x(2,4) = 5
MCLinV(2,1,4):  - x(1,4) - v(2,1,4) + x(2,4) = 5
MCLin1(1,2,4):  u(1,2,4) >= -0
MCLin2(1,2,4):  -92 y(2,1,4) - u(1,2,4) <= -0
MCLin3(1,2,4):  76 y(2,1,4) + v(1,2,4) - u(1,2,4) <= 76
MCLin4(1,2,4):  76 y(2,1,4) - u(1,2,4) >= -0
MCLin5(1,2,4):  -92 y(2,1,4) + v(1,2,4) - u(1,2,4) >= -92
MCLin6(2,1,4):  u(2,1,4) >= -0
MCLin7(2,1,4):  -86 y(1,2,4) - u(2,1,4) <= -0
MCLin8(2,1,4):  82 y(1,2,4) + v(2,1,4) - u(2,1,4) <= 82
MCLin9(2,1,4):  82 y(1,2,4) - u(2,1,4) >= -0
MCLin10(2,1,4):  -86 y(1,2,4) + v(2,1,4) - u(2,1,4) >= -86
MCLinV(1,3,0):  x(1,0) - v(1,3,0) - x(3,0) = 4
MCLinV(3,1,0):  - x(1,0) - v(3,1,0) + x(3,0) = 9
MCLin1(1,3,0):  u(1,3,0) >= -0
MCLin2(1,3,0):  -94 y(3,1,0) - u(1,3,0) <= -0
MCLin3(1,3,0):  78 y(3,1,0) + v(1,3,0) - u(1,3,0) <= 78
MCLin4(1,3,0):  78 y(3,1,0) - u(1,3,0) >= -0
MCLin5(1,3,0):  -94 y(3,1,0) + v(1,3,0) - u(1,3,0) >= -94
MCLin6(3,1,0):  u(3,1,0) >= -0
MCLin7(3,1,0):  -91 y(1,3,0) - u(3,1,0) <= -0
MCLin8(3,1,0):  81 y(1,3,0) + v(3,1,0) - u(3,1,0) <= 81
MCLin9(3,1,0):  81 y(1,3,0) - u(3,1,0) >= -0
MCLin10(3,1,0):  -91 y(1,3,0) + v(3,1,0) - u(3,1,0) >= -91
MCLinV(1,3,1):  x(1,1) - v(1,3,1) - x(3,1) = 3
MCLinV(3,1,1):  - x(1,1) - v(3,1,1) + x(3,1) = 9
MCLin1(1,3,1):  u(1,3,1) >= -0
MCLin2(1,3,1):  -99 y(3,1,1) - u(1,3,1) <= -0
MCLin3(1,3,1):  73 y(3,1,1) + v(1,3,1) - u(1,3,1) <= 73
MCLin4(1,3,1):  73 y(3,1,1) - u(1,3,1) >= -0
MCLin5(1,3,1):  -99 y(3,1,1) + v(1,3,1) - u(1,3,1) >= -99
MCLin6(3,1,1):  u(3,1,1) >= -0
MCLin7(3,1,1):  -85 y(1,3,1) - u(3,1,1) <= -0
MCLin8(3,1,1):  87 y(1,3,1) + v(3,1,1) - u(3,1,1) <= 87
MCLin9(3,1,1):  87 y(1,3,1) - u(3,1,1) >= -0
MCLin10(3,1,1):  -85 y(1,3,1) + v(3,1,1) - u(3,1,1) >= -85
MCLinV(1,3,2):  x(1,2) - v(1,3,2) - x(3,2) = 3
MCLinV(3,1,2):  - x(1,2) - v(3,1,2) + x(3,2) = 8
MCLin1(1,3,2):  u(1,3,2) >= -0
MCLin2(1,3,2):  -69 y(3,1,2) - u(1,3,2) <= -0
MCLin3(1,3,2):  103 y(3,1,2) + v(1,3,2) - u(1,3,2) <= 103
MCLin4(1,3,2):  103 y(3,1,2) - u(1,3,2) >= -0
MCLin5(1,3,2):  -69 y(3,1,2) + v(1,3,2) - u(1,3,2) >= -69
MCLin6(3,1,2):  u(3,1,2) >= -0
MCLin7(3,1,2):  -114 y(1,3,2) - u(3,1,2) <= -0
MCLin8(3,1,2):  58 y(1,3,2) + v(3,1,2) - u(3,1,2) <= 58
MCLin9(3,1,2):  58 y(1,3,2) - u(3,1,2) >= -0
MCLin10(3,1,2):  -114 y(1,3,2) + v(3,1,2) - u(3,1,2) >= -114
MCLinV(1,3,3):  x(1,3) - v(1,3,3) - x(3,3) = 10
MCLinV(3,1,3):  - x(1,3) - v(3,1,3) + x(3,3) = 4
MCLin1(1,3,3):  u(1,3,3) >= -0
MCLin2(1,3,3):  -95 y(3,1,3) - u(1,3,3) <= -0
MCLin3(1,3,3):  77 y(3,1,3) + v(1,3,3) - u(1,3,3) <= 77
MCLin4(1,3,3):  77 y(3,1,3) - u(1,3,3) >= -0
MCLin5(1,3,3):  -95 y(3,1,3) + v(1,3,3) - u(1,3,3) >= -95
MCLin6(3,1,3):  u(3,1,3) >= -0
MCLin7(3,1,3):  -91 y(1,3,3) - u(3,1,3) <= -0
MCLin8(3,1,3):  81 y(1,3,3) + v(3,1,3) - u(3,1,3) <= 81
MCLin9(3,1,3):  81 y(1,3,3) - u(3,1,3) >= -0
MCLin10(3,1,3):  -91 y(1,3,3) + v(3,1,3) - u(3,1,3) >= -91
MCLinV(1,3,4):  x(1,4) - v(1,3,4) - x(3,4) = 1
MCLinV(3,1,4):  - x(1,4) - v(3,1,4) + x(3,4) = 5
MCLin1(1,3,4):  u(1,3,4) >= -0
MCLin2(1,3,4):  -92 y(3,1,4) - u(1,3,4) <= -0
MCLin3(1,3,4):  80 y(3,1,4) + v(1,3,4) - u(1,3,4) <= 80
MCLin4(1,3,4):  80 y(3,1,4) - u(1,3,4) >= -0
MCLin5(1,3,4):  -92 y(3,1,4) + v(1,3,4) - u(1,3,4) >= -92
MCLin6(3,1,4):  u(3,1,4) >= -0
MCLin7(3,1,4):  -86 y(1,3,4) - u(3,1,4) <= -0
MCLin8(3,1,4):  86 y(1,3,4) + v(3,1,4) - u(3,1,4) <= 86
MCLin9(3,1,4):  86 y(1,3,4) - u(3,1,4) >= -0
MCLin10(3,1,4):  -86 y(1,3,4) + v(3,1,4) - u(3,1,4) >= -86
MCLinV(2,3,0):  x(2,0) - v(2,3,0) - x(3,0) = 4
MCLinV(3,2,0):  - x(2,0) - v(3,2,0) + x(3,0) = 3
MCLin1(2,3,0):  u(2,3,0) >= -0
MCLin2(2,3,0):  -103 y(3,2,0) - u(2,3,0) <= -0
MCLin3(2,3,0):  79 y(3,2,0) + v(2,3,0) - u(2,3,0) <= 79
MCLin4(2,3,0):  79 y(3,2,0) - u(2,3,0) >= -0
MCLin5(2,3,0):  -103 y(3,2,0) + v(2,3,0) - u(2,3,0) >= -103
MCLin6(3,2,0):  u(3,2,0) >= -0
MCLin7(3,2,0):  -86 y(2,3,0) - u(3,2,0) <= -0
MCLin8(3,2,0):  96 y(2,3,0) + v(3,2,0) - u(3,2,0) <= 96
MCLin9(3,2,0):  96 y(2,3,0) - u(3,2,0) >= -0
MCLin10(3,2,0):  -86 y(2,3,0) + v(3,2,0) - u(3,2,0) >= -86
MCLinV(2,3,1):  x(2,1) - v(2,3,1) - x(3,1) = 3
MCLinV(3,2,1):  - x(2,1) - v(3,2,1) + x(3,1) = 9
MCLin1(2,3,1):  u(2,3,1) >= -0
MCLin2(2,3,1):  -93 y(3,2,1) - u(2,3,1) <= -0
MCLin3(2,3,1):  89 y(3,2,1) + v(2,3,1) - u(2,3,1) <= 89
MCLin4(2,3,1):  89 y(3,2,1) - u(2,3,1) >= -0
MCLin5(2,3,1):  -93 y(3,2,1) + v(2,3,1) - u(2,3,1) >= -93
MCLin6(3,2,1):  u(3,2,1) >= -0
MCLin7(3,2,1):  -101 y(2,3,1) - u(3,2,1) <= -0
MCLin8(3,2,1):  81 y(2,3,1) + v(3,2,1) - u(3,2,1) <= 81
MCLin9(3,2,1):  81 y(2,3,1) - u(3,2,1) >= -0
MCLin10(3,2,1):  -101 y(2,3,1) + v(3,2,1) - u(3,2,1) >= -101
MCLinV(2,3,2):  x(2,2) - v(2,3,2) - x(3,2) = 3
MCLinV(3,2,2):  - x(2,2) - v(3,2,2) + x(3,2) = 5
MCLin1(2,3,2):  u(2,3,2) >= -0
MCLin2(2,3,2):  -81 y(3,2,2) - u(2,3,2) <= -0
MCLin3(2,3,2):  101 y(3,2,2) + v(2,3,2) - u(2,3,2) <= 101
MCLin4(2,3,2):  101 y(3,2,2) - u(2,3,2) >= -0
MCLin5(2,3,2):  -81 y(3,2,2) + v(2,3,2) - u(2,3,2) >= -81
MCLin6(3,2,2):  u(3,2,2) >= -0
MCLin7(3,2,2):  -109 y(2,3,2) - u(3,2,2) <= -0
MCLin8(3,2,2):  73 y(2,3,2) + v(3,2,2) - u(3,2,2) <= 73
MCLin9(3,2,2):  73 y(2,3,2) - u(3,2,2) >= -0
MCLin10(3,2,2):  -109 y(2,3,2) + v(3,2,2) - u(3,2,2) >= -109
MCLinV(2,3,3):  x(2,3) - v(2,3,3) - x(3,3) = 10
MCLinV(3,2,3):  - x(2,3) - v(3,2,3) + x(3,3) = 3
MCLin1(2,3,3):  u(2,3,3) >= -0
MCLin2(2,3,3):  -110 y(3,2,3) - u(2,3,3) <= -0
MCLin3(2,3,3):  72 y(3,2,3) + v(2,3,3) - u(2,3,3) <= 72
MCLin4(2,3,3):  72 y(3,2,3) - u(2,3,3) >= -0
MCLin5(2,3,3):  -110 y(3,2,3) + v(2,3,3) - u(2,3,3) >= -110
MCLin6(3,2,3):  u(3,2,3) >= -0
MCLin7(3,2,3):  -85 y(2,3,3) - u(3,2,3) <= -0
MCLin8(3,2,3):  97 y(2,3,3) + v(3,2,3) - u(3,2,3) <= 97
MCLin9(3,2,3):  97 y(2,3,3) - u(3,2,3) >= -0
MCLin10(3,2,3):  -85 y(2,3,3) + v(3,2,3) - u(3,2,3) >= -85
MCLinV(2,3,4):  x(2,4) - v(2,3,4) - x(3,4) = 1
MCLinV(3,2,4):  - x(2,4) - v(3,2,4) + x(3,4) = 5
MCLin1(2,3,4):  u(2,3,4) >= -0
MCLin2(2,3,4):  -94 y(3,2,4) - u(2,3,4) <= -0
MCLin3(2,3,4):  88 y(3,2,4) + v(2,3,4) - u(2,3,4) <= 88
MCLin4(2,3,4):  88 y(3,2,4) - u(2,3,4) >= -0
MCLin5(2,3,4):  -94 y(3,2,4) + v(2,3,4) - u(2,3,4) >= -94
MCLin6(3,2,4):  u(3,2,4) >= -0
MCLin7(3,2,4):  -94 y(2,3,4) - u(3,2,4) <= -0
MCLin8(3,2,4):  88 y(2,3,4) + v(3,2,4) - u(3,2,4) <= 88
MCLin9(3,2,4):  88 y(2,3,4) - u(3,2,4) >= -0
MCLin10(3,2,4):  -94 y(2,3,4) + v(3,2,4) - u(3,2,4) >= -94
makespan(0):  C - x(0,1) >= 7
makespan(1):  C - x(1,2) >= 8
makespan(2):  C - x(2,4) >= 5
makespan(3):  C - x(3,4) >= 1
cut_clique_0(0123,0):  0.09524 x(1,0) + 0.00794 x(3,0) >= 1
cut_clique_0(123,0):  0.09524 x(1,0) + 0.00794 x(3,0) >= 1
cut_clique_0(013,0):  0.09524 x(1,0) + 0.00794 x(3,0) >= 1
cut_clique_0(0123,1):  0.11111 x(1,1) + 0.11111 x(3,1) >= 1
cut_clique_0(123,1):  0.11111 x(1,1) + 0.11111 x(3,1) >= 1
cut_clique_0(012,1):  0.02222 x(1,1) + 0.11111 x(2,1) >= 1
cut_clique_0(013,1):  0.11111 x(1,1) + 0.11111 x(3,1) >= 1
cut_clique_0(0123,2):  0.01250 x(0,2) + 0.05000 x(2,2) >= 1
cut_clique_0(023,2):  0.01250 x(0,2) + 0.05000 x(2,2) >= 1
cut_clique_0(012,2):  0.01250 x(0,2) + 0.05000 x(2,2) >= 1
cut_clique_0(0123,3):  0.00233 x(0,3) + 0.04429 x(1,3) + 0.00583 x(3,3) >= 1
cut_clique_0(013,3):  0.00233 x(0,3) + 0.04429 x(1,3) + 0.00583 x(3,3) >= 1
cut_clique_0(123,3):  0.04615 x(1,3) + 0.00769 x(3,3) >= 1
cut_clique_0(0123,4):  0.02308 x(1,4) + 0.01538 x(2,4) + 0.00385 x(3,4) >= 1
cut_clique_0(123,4):  0.02308 x(1,4) + 0.01538 x(2,4) + 0.00385 x(3,4) >= 1
cut_clique_0(012,4):  0.02979 x(1,4) + 0.01277 x(2,4) >= 1
cut_clique_1(0123,0):  0.00571 x(0,0) + 0.08571 x(1,0) + 0.00571 x(3,0) >= 1
cut_clique_1(013,0):  0.00571 x(0,0) + 0.08571 x(1,0) + 0.00571 x(3,0) >= 1
Bounds
 0 <= C <= 114
 18 <= x(0,0) <= 99
 0 <= y(0,1,0) <= 1
 0 <= y(1,0,0) <= 1
 -79 <= v(0,1,0) <= 81
 -94 <= v(1,0,0) <= 66
 -1140 <= u(0,1,0)
 -1140 <= u(1,0,0)
 0 <= y(0,2,0) <= 1
 0 <= y(2,0,0) <= 1
 -74 <= v(0,2,0) <= 96
 -103 <= v(2,0,0) <= 67
 -1140 <= u(0,2,0)
 -1140 <= u(2,0,0)
 0 <= y(0,3,0) <= 1
 0 <= y(3,0,0) <= 1
 -85 <= v(0,3,0) <= 89
 -97 <= v(3,0,0) <= 77
 -1140 <= u(0,3,0)
 -1140 <= u(3,0,0)
 9 <= x(1,0) <= 88
 0 <= y(1,2,0) <= 1
 0 <= y(2,1,0) <= 1
 -83 <= v(1,2,0) <= 85
 -97 <= v(2,1,0) <= 71
 -1140 <= u(1,2,0)
 -1140 <= u(2,1,0)
 0 <= y(1,3,0) <= 1
 0 <= y(3,1,0) <= 1
 -94 <= v(1,3,0) <= 78
 -91 <= v(3,1,0) <= 81
 -1140 <= u(1,3,0)
 -1140 <= u(3,1,0)
 0 <= x(2,0) <= 89
 0 <= y(2,3,0) <= 1
 0 <= y(3,2,0) <= 1
 -103 <= v(2,3,0) <= 79
 -86 <= v(3,2,0) <= 96
 -1140 <= u(2,3,0)
 -1140 <= u(3,2,0)
 6 <= x(3,0) <= 99
 26 <= x(0,1) <= 107
 0 <= y(0,1,1) <= 1
 0 <= y(1,0,1) <= 1
 -62 <= v(0,1,1) <= 98
 -114 <= v(1,0,1) <= 46
 -1140 <= u(0,1,1)
 -1140 <= u(1,0,1)
 0 <= y(0,2,1) <= 1
 0 <= y(2,0,1) <= 1
 -78 <= v(0,2,1) <= 92
 -108 <= v(2,0,1) <= 62
 -1140 <= u(0,2,1)
 -1140 <= u(2,0,1)
 0 <= y(0,3,1) <= 1
 0 <= y(3,0,1) <= 1
 -73 <= v(0,3,1) <= 101
 -111 <= v(3,0,1) <= 63
 -1140 <= u(0,3,1)
 -1140 <= u(3,0,1)
 0 <= x(1,1) <= 79
 0 <= y(1,2,1) <= 1
 0 <= y(2,1,1) <= 1
 -104 <= v(1,2,1) <= 64
 -82 <= v(2,1,1) <= 86
 -1140 <= u(1,2,1)
 -1140 <= u(2,1,1)
 0 <= y(1,3,1) <= 1
 0 <= y(3,1,1) <= 1
 -99 <= v(1,3,1) <= 73
 -85 <= v(3,1,1) <= 87
 -1140 <= u(1,3,1)
 -1140 <= u(3,1,1)
 6 <= x(2,1) <= 95
 0 <= y(2,3,1) <= 1
 0 <= y(3,2,1) <= 1
 -93 <= v(2,3,1) <= 89
 -101 <= v(3,2,1) <= 81
 -1140 <= u(2,3,1)
 -1140 <= u(3,2,1)
 3 <= x(3,1) <= 96
 8 <= x(0,2) <= 89
 0 <= y(0,1,2) <= 1
 0 <= y(1,0,2) <= 1
 -106 <= v(0,1,2) <= 54
 -72 <= v(1,0,2) <= 88
 -1140 <= u(0,1,2)
 -1140 <= u(1,0,2)
 0 <= y(0,2,2) <= 1
 0 <= y(2,0,2) <= 1
 -101 <= v(0,2,2) <= 69
 -84 <= v(2,0,2) <= 86
 -1140 <= u(0,2,2)
 -1140 <= u(2,0,2)
 0 <= y(0,3,2) <= 1
 0 <= y(3,0,2) <= 1
 -88 <= v(0,3,2) <= 86
 -99 <= v(3,0,2) <= 75
 -1140 <= u(0,3,2)
 -1140 <= u(3,0,2)
 27 <= x(1,2) <= 106
 0 <= y(1,2,2) <= 1
 0 <= y(2,1,2) <= 1
 -82 <= v(1,2,2) <= 86
 -99 <= v(2,1,2) <= 69
 -1140 <= u(1,2,2)
 -1140 <= u(2,1,2)
 0 <= y(1,3,2) <= 1
 0 <= y(3,1,2) <= 1
 -69 <= v(1,3,2) <= 103
 -114 <= v(3,1,2) <= 58
 -1140 <= u(1,3,2)
 -1140 <= u(3,1,2)
 15 <= x(2,2) <= 104
 0 <= y(2,3,2) <= 1
 0 <= y(3,2,2) <= 1
 -81 <= v(2,3,2) <= 101
 -109 <= v(3,2,2) <= 73
 -1140 <= u(2,3,2)
 -1140 <= u(3,2,2)
 0 <= x(3,2) <= 93
 22 <= x(0,3) <= 103
 0 <= y(0,1,3) <= 1
 0 <= y(1,0,3) <= 1
 -79 <= v(0,1,3) <= 81
 -89 <= v(1,0,3) <= 71
 -1140 <= u(0,1,3)
 -1140 <= u(1,0,3)
 0 <= y(0,2,3) <= 1
 0 <= y(2,0,3) <= 1
 -73 <= v(0,2,3) <= 97
 -104 <= v(2,0,3) <= 66
 -1140 <= u(0,2,3)
 -1140 <= u(2,0,3)
 0 <= y(0,3,3) <= 1
 0 <= y(3,0,3) <= 1
 -91 <= v(0,3,3) <= 83
 -97 <= v(3,0,3) <= 77
 -1140 <= u(0,3,3)
 -1140 <= u(3,0,3)
 18 <= x(1,3) <= 97
 0 <= y(1,2,3) <= 1
 0 <= y(2,1,3) <= 1
 -77 <= v(1,2,3) <= 91
 -98 <= v(2,1,3) <= 70
 -1140 <= u(1,2,3)
 -1140 <= u(2,1,3)
 0 <= y(1,3,3) <= 1
 0 <= y(3,1,3) <= 1
 -95 <= v(1,3,3) <= 77
 -91 <= v(3,1,3) <= 81
 -1140 <= u(1,3,3)
 -1140 <= u(3,1,3)
 3 <= x(2,3) <= 92
 0 <= y(2,3,3) <= 1
 0 <= y(3,2,3) <= 1
 -110 <= v(2,3,3) <= 72
 -85 <= v(3,2,3) <= 97
 -1140 <= u(2,3,3)
 -1140 <= u(3,2,3)
 10 <= x(3,3) <= 103
 0 <= x(0,4) <= 81
 0 <= y(0,1,4) <= 1
 0 <= y(1,0,4) <= 1
 -106 <= v(0,1,4) <= 54
 -67 <= v(1,0,4) <= 93
 -1140 <= u(0,1,4)
 -1140 <= u(1,0,4)
 0 <= y(0,2,4) <= 1
 0 <= y(2,0,4) <= 1
 -114 <= v(0,2,4) <= 56
 -69 <= v(2,0,4) <= 101
 -1140 <= u(0,2,4)
 -1140 <= u(2,0,4)
 0 <= y(0,3,4) <= 1
 0 <= y(3,0,4) <= 1
 -114 <= v(0,3,4) <= 60
 -69 <= v(3,0,4) <= 105
 -1140 <= u(0,3,4)
 -1140 <= u(3,0,4)
 22 <= x(1,4) <= 101
 0 <= y(1,2,4) <= 1
 0 <= y(2,1,4) <= 1
 -92 <= v(1,2,4) <= 76
 -86 <= v(2,1,4) <= 82
 -1140 <= u(1,2,4)
 -1140 <= u(2,1,4)
 0 <= y(1,3,4) <= 1
 0 <= y(3,1,4) <= 1
 -92 <= v(1,3,4) <= 80
 -86 <= v(3,1,4) <= 86
 -1140 <= u(1,3,4)
 -1140 <= u(3,1,4)
 20 <= x(2,4) <= 109
 0 <= y(2,3,4) <= 1
 0 <= y(3,2,4) <= 1
 -94 <= v(2,3,4) <= 88
 -94 <= v(3,2,4) <= 88
 -1140 <= u(2,3,4)
 -1140 <= u(3,2,4)
 20 <= x(3,4) <= 113
Integers
C x(0,0) y(0,1,0) y(1,0,0) v(0,1,0) v(1,0,0) u(0,1,0) u(1,0,0) y(0,2,0) y(2,0,0) 
v(0,2,0) v(2,0,0) u(0,2,0) u(2,0,0) y(0,3,0) y(3,0,0) v(0,3,0) v(3,0,0) u(0,3,0) u(3,0,0) 
x(1,0) y(1,2,0) y(2,1,0) v(1,2,0) v(2,1,0) u(1,2,0) u(2,1,0) y(1,3,0) y(3,1,0) v(1,3,0) 
v(3,1,0) u(1,3,0) u(3,1,0) x(2,0) y(2,3,0) y(3,2,0) v(2,3,0) v(3,2,0) u(2,3,0) u(3,2,0) 
x(3,0) x(0,1) y(0,1,1) y(1,0,1) v(0,1,1) v(1,0,1) u(0,1,1) u(1,0,1) y(0,2,1) y(2,0,1) 
v(0,2,1) v(2,0,1) u(0,2,1) u(2,0,1) y(0,3,1) y(3,0,1) v(0,3,1) v(3,0,1) u(0,3,1) u(3,0,1) 
x(1,1) y(1,2,1) y(2,1,1) v(1,2,1) v(2,1,1) u(1,2,1) u(2,1,1) y(1,3,1) y(3,1,1) v(1,3,1) 
v(3,1,1) u(1,3,1) u(3,1,1) x(2,1) y(2,3,1) y(3,2,1) v(2,3,1) v(3,2,1) u(2,3,1) u(3,2,1) 
x(3,1) x(0,2) y(0,1,2) y(1,0,2) v(0,1,2) v(1,0,2) u(0,1,2) u(1,0,2) y(0,2,2) y(2,0,2) 
v(0,2,2) v(2,0,2) u(0,2,2) u(2,0,2) y(0,3,2) y(3,0,2) v(0,3,2) v(3,0,2) u(0,3,2) u(3,0,2) 
x(1,2) y(1,2,2) y(2,1,2) v(1,2,2) v(2,1,2) u(1,2,2) u(2,1,2) y(1,3,2) y(3,1,2) v(1,3,2) 
v(3,1,2) u(1,3,2) u(3,1,2) x(2,2) y(2,3,2) y(3,2,2) v(2,3,2) v(3,2,2) u(2,3,2) u(3,2,2) 
x(3,2) x(0,3) y(0,1,3) y(1,0,3) v(0,1,3) v(1,0,3) u(0,1,3) u(1,0,3) y(0,2,3) y(2,0,3) 
v(0,2,3) v(2,0,3) u(0,2,3) u(2,0,3) y(0,3,3) y(3,0,3) v(0,3,3) v(3,0,3) u(0,3,3) u(3,0,3) 
x(1,3) y(1,2,3) y(2,1,3) v(1,2,3) v(2,1,3) u(1,2,3) u(2,1,3) y(1,3,3) y(3,1,3) v(1,3,3) 
v(3,1,3) u(1,3,3) u(3,1,3) x(2,3) y(2,3,3) y(3,2,3) v(2,3,3) v(3,2,3) u(2,3,3) u(3,2,3) 
x(3,3) x(0,4) y(0,1,4) y(1,0,4) v(0,1,4) v(1,0,4) u(0,1,4) u(1,0,4) y(0,2,4) y(2,0,4) 
v(0,2,4) v(2,0,4) u(0,2,4) u(2,0,4) y(0,3,4) y(3,0,4) v(0,3,4) v(3,0,4) u(0,3,4) u(3,0,4) 
x(1,4) y(1,2,4) y(2,1,4) v(1,2,4) v(2,1,4) u(1,2,4) u(2,1,4) y(1,3,4) y(3,1,4) v(1,3,4) 
v(3,1,4) u(1,3,4) u(3,1,4) x(2,4) y(2,3,4) y(3,2,4) v(2,3,4) v(3,2,4) u(2,3,4) u(3,2,4) 
x(3,4) 
End
